NAME: tsp225
TYPE: TOUR
DIMENSION: 225
TOUR_SECTION
1
200
3
198
4
197
5
6
7
8
9
40
41
42
43
44
46
194
218
193
196
192
191
205
224
199
133
190
225
47
2
207
49
51
57
56
55
52
54
53
50
59
58
189
27
188
117
187
116
223
115
114
113
112
111
110
64
63
62
61
60
66
67
68
69
70
71
72
73
74
75
76
216
219
217
77
78
79
97
96
95
209
94
93
92
91
90
87
210
84
85
86
131
211
130
222
129
128
127
126
132
164
215
134
135
183
136
137
138
139
140
141
142
201
143
144
157
156
155
154
153
148
147
146
145
149
152
151
150
214
212
168
169
170
171
172
173
181
174
180
179
176
177
178
182
125
167
166
165
159
160
161
162
163
158
213
83
82
89
88
221
80
81
99
98
100
101
102
103
104
220
105
106
107
108
109
30
202
206
31
32
29
28
204
35
33
34
26
25
208
24
23
13
14
15
16
17
20
203
19
18
21
22
12
11
36
37
38
39
10
65
118
119
185
120
175
121
122
123
124
184
186
45
48
195
EOF